p cnf 14 64
1 5 8 0
5 8 10 0
2 3 -10 0
5 -6 -7 0
-2 -5 -13 0
1 3 8 0
-9 -10 -12 0
2 7 10 0
10 11 12 0
3 -6 14 0
4 12 -14 0
-3 -5 -6 0
2 10 -12 0
4 7 -12 0
6 -11 -12 0
7 -12 13 0
-1 2 -7 0
-5 9 12 0
7 10 14 0
5 6 -12 0
-1 7 -10 0
-1 -2 8 0
-4 9 14 0
-2 8 14 0
-5 6 14 0
4 -9 -14 0
1 -2 9 0
-5 -8 -14 0
-5 12 -13 0
-10 -11 13 0
-4 8 -13 0
6 10 12 0
-5 6 11 0
-2 -6 -8 0
2 6 -11 0
-3 -6 13 0
-2 10 -14 0
2 -5 -8 0
-2 -8 -10 0
2 -3 11 0
3 -4 -6 0
-3 6 -10 0
-6 -7 -14 0
2 -4 -6 0
1 9 -12 0
8 12 14 0
4 -8 13 0
2 -5 -11 0
-9 11 -14 0
-3 6 9 0
6 -7 -10 0
-9 11 -12 0
-1 -9 11 0
3 10 -11 0
-4 -6 10 0
-2 3 -12 0
-3 8 -9 0
-5 -6 -12 0
2 4 -9 0
-6 -7 8 0
-8 -10 -14 0
1 -5 7 0
7 10 11 0
-5 -13 -14 0
